Solver command line: []

Read LP format model from file C:\Users\wlhlm\AppData\Local\Temp\tmp1p_edppa.pyomo.lp
Reading time = 69.39 seconds
objective: 1005744 rows, 878399 columns, 79411710 nonzeros
Set parameter MIPGap to value 0.03
Gurobi Optimizer version 12.0.1 build v12.0.1rc0 (win64 - Windows 11.0 (26100.2))

CPU model: Intel(R) Core(TM) Ultra 7 258V, instruction set [SSE2|AVX|AVX2]
Thread count: 8 physical cores, 8 logical processors, using up to 8 threads

Non-default parameters:
MIPGap  0.03

Optimize a model with 1005744 rows, 878399 columns and 79411710 nonzeros
Model fingerprint: 0xca12e611
Model has 8783 quadratic constraints
Variable types: 755424 continuous, 122975 integer (105408 binary)
Coefficient statistics:
  Matrix range     [7e-03, 2e+02]
  QMatrix range    [1e+00, 1e+00]
  Objective range  [1e-02, 1e+03]
  Bounds range     [1e+00, 3e+00]
  RHS range        [8e-05, 1e+04]
Presolve removed 96624 rows and 122976 columns (presolve time = 15s)...
Presolve removed 158112 rows and 122976 columns (presolve time = 32s)...
Presolve removed 619252 rows and 496275 columns (presolve time = 41s)...
Presolve removed 658759 rows and 531413 columns (presolve time = 49s)...
Presolve removed 680694 rows and 548981 columns (presolve time = 62s)...
Presolve removed 698753 rows and 555938 columns (presolve time = 67s)...
Presolve removed 698762 rows and 555947 columns (presolve time = 83s)...
Presolve removed 698762 rows and 558522 columns (presolve time = 90s)...
Presolve removed 701337 rows and 558522 columns (presolve time = 95s)...
Presolve removed 703991 rows and 561176 columns (presolve time = 100s)...
Presolve removed 704067 rows and 561252 columns (presolve time = 113s)...
Presolve removed 704067 rows and 561252 columns (presolve time = 125s)...
Presolve removed 704067 rows and 561252 columns (presolve time = 144s)...
Presolve removed 704067 rows and 561252 columns (presolve time = 155s)...
Presolve removed 712850 rows and 561252 columns (presolve time = 175s)...
Presolve removed 712850 rows and 561252 columns (presolve time = 186s)...
Presolve removed 712850 rows and 561253 columns (presolve time = 190s)...
Presolve removed 712850 rows and 561253 columns (presolve time = 195s)...
Presolve removed 712850 rows and 561253 columns (presolve time = 200s)...
Presolve removed 712850 rows and 561253 columns (presolve time = 222s)...
Presolve removed 808624 rows and 665695 columns
Presolve time: 224.21s
Presolved: 197120 rows, 212704 columns, 621295 nonzeros
Variable types: 149381 continuous, 63323 integer (63323 binary)
Performing another presolve...
Presolve removed 52700 rows and 52702 columns (presolve time = 6s)...
Presolve removed 52700 rows and 52702 columns
Presolve time: 6.03s
Deterministic concurrent LP optimizer: primal and dual simplex
Showing primal log only...


Root simplex log...

Iteration    Objective       Primal Inf.    Dual Inf.      Time
       0    3.5936365e+07   5.535583e+07   5.230883e+13    233s
   49406    2.6248206e+07   7.612001e+04   7.308366e+10    235s
Concurrent spin time: 0.00s

Solved with dual simplex

Root simplex log...

Iteration    Objective       Primal Inf.    Dual Inf.      Time
   44429    7.8844002e+06   0.000000e+00   0.000000e+00    235s

Root relaxation: objective 7.884400e+06, 44429 iterations, 2.53 seconds (3.49 work units)
Total elapsed time = 235.47s (DegenMoves)

    Nodes    |    Current Node    |     Objective Bounds      |     Work
 Expl Unexpl |  Obj  Depth IntInf | Incumbent    BestBd   Gap | It/Node Time

     0     0 7884400.17    0  749          - 7884400.17      -     -  238s
H    0     0                    8386856.2490 7884400.17  5.99%     -  239s
     0     0 7896169.84    0  952 8386856.25 7896169.84  5.85%     -  243s
     0     0 7899537.61    0  945 8386856.25 7899537.61  5.81%     -  244s
     0     0 7899544.29    0  948 8386856.25 7899544.29  5.81%     -  245s
     0     0 7899544.29    0  950 8386856.25 7899544.29  5.81%     -  245s
     0     0 7905657.10    0  866 8386856.25 7905657.10  5.74%     -  247s
     0     0 7906658.36    0  730 8386856.25 7906658.36  5.73%     -  249s
     0     0 7906798.26    0  710 8386856.25 7906798.26  5.72%     -  249s
     0     0 7906839.09    0  715 8386856.25 7906839.09  5.72%     -  249s
     0     0 7906843.15    0  715 8386856.25 7906843.15  5.72%     -  250s
     0     0 7908429.71    0  673 8386856.25 7908429.71  5.70%     -  253s
H    0     0                    8385986.5250 7908784.25  5.69%     -  254s
H    0     0                    8373659.3623 7908784.25  5.55%     -  254s
H    0     0                    8371965.4264 7908784.25  5.53%     -  254s
H    0     0                    8371072.4456 7908784.25  5.52%     -  254s
H    0     0                    8370967.9170 7908784.25  5.52%     -  254s
     0     0 7908784.25    0  637 8370967.92 7908784.25  5.52%     -  254s
H    0     0                    8370646.6836 7908821.15  5.52%     -  254s
     0     0 7908821.15    0  645 8370646.68 7908821.15  5.52%     -  254s
H    0     0                    8370390.5432 7908861.04  5.51%     -  254s
     0     0 7908861.04    0  644 8370390.54 7908861.04  5.51%     -  254s
H    0     0                    8370207.8756 7908874.80  5.51%     -  255s
     0     0 7908874.80    0  641 8370207.88 7908874.80  5.51%     -  255s
     0     0 7908876.25    0  640 8370207.88 7908876.25  5.51%     -  255s
     0     0 7909243.33    0  633 8370207.88 7909243.33  5.51%     -  258s
H    0     0                    8365232.5881 7909251.61  5.45%     -  259s
H    0     0                    8361628.5232 7909251.61  5.41%     -  259s
H    0     0                    8361613.0662 7909251.61  5.41%     -  259s
     0     0 7909348.86    0  627 8361613.07 7909348.86  5.41%     -  260s
     0     0 7909391.34    0  628 8361613.07 7909391.34  5.41%     -  260s
     0     0 7909395.22    0  633 8361613.07 7909395.22  5.41%     -  260s
     0     0 7909518.07    0  610 8361613.07 7909518.07  5.41%     -  261s
     0     0 7909535.39    0  607 8361613.07 7909535.39  5.41%     -  263s
     0     0 7909540.11    0  610 8361613.07 7909540.11  5.41%     -  263s
     0     0 7909545.75    0  611 8361613.07 7909545.75  5.41%     -  263s
     0     0 7909545.75    0  611 8361613.07 7909545.75  5.41%     -  263s
     0     0 7909564.11    0  609 8361613.07 7909564.11  5.41%     -  264s
H    0     0                    8361609.6741 7909568.80  5.41%     -  265s
H    0     0                    8357314.1513 7909568.80  5.36%     -  266s
H    0     0                    8351864.1585 7909568.80  5.30%     -  266s
H    0     0                    8347296.0589 7909568.80  5.24%     -  266s
H    0     0                    8340366.0113 7909568.80  5.17%     -  266s
H    0     0                    8339503.2958 7909568.80  5.16%     -  267s
H    0     0                    8335859.0474 7909568.80  5.11%     -  269s
     0     0 7909568.80    0  619 8335859.05 7909568.80  5.11%     -  270s
     0     0 7909582.82    0  615 8335859.05 7909582.82  5.11%     -  271s
     0     0 7909586.52    0  624 8335859.05 7909586.52  5.11%     -  272s
     0     0 7909592.47    0  620 8335859.05 7909592.47  5.11%     -  273s
     0     0 7909592.47    0  480 8335859.05 7909592.47  5.11%     -  275s
H    0     0                    8229089.0469 7909592.47  3.88%     -  278s
H    0     0                    8225513.9754 7909592.47  3.84%     -  278s
H    0     0                    8223710.6503 7909592.47  3.82%     -  278s
H    0     0                    8075721.8206 7909592.47  2.06%     -  278s

Cutting planes:
  Learned: 81
  Gomory: 158
  Cover: 263
  Implied bound: 159
  MIR: 1392
  StrongCG: 1
  Flow cover: 899
  Flow path: 11
  RLT: 20
  Relax-and-lift: 323

Explored 1 nodes (67588 simplex iterations) in 279.48 seconds (95.29 work units)
Thread count was 8 (of 8 available processors)

Solution count 10: 8.07572e+06 8.22371e+06 8.22551e+06 ... 8.35731e+06

Optimal solution found (tolerance 3.00e-02)
Best objective 8.075721820627e+06, best bound 7.909592465006e+06, gap 2.0571%

